; benchmark generated from python API
(set-info :status unknown)
(declare-fun x_months () Int)
(declare-fun x_beta () Int)
(declare-fun y_months () Int)
(declare-fun y_beta () Int)
(assert
 (<= (- 1202) x_months))
(assert
 (>= 1209 x_months))
(assert
 (>= x_beta 0))
(assert
 (let ((?x3161 (+ x_months 24003)))
 (let ((?x1320 (- ?x3161 (* (div (- ?x3161 1) 12) 12))))
 (let ((?x1600 (ite (or (= ?x1320 4) (= ?x1320 6) (= ?x1320 9) (= ?x1320 11)) 30 31)))
 (let (($x1610 (and (= (mod (div (- ?x3161 1) 12) 4) 0) (and (distinct (mod (div (- ?x3161 1) 12) 100) 0) true))))
 (let ((?x207 (ite (or $x1610 (= (mod (div (- ?x3161 1) 12) 400) 0)) 29 28)))
 (< x_beta (ite (= ?x1320 2) ?x207 ?x1600))))))))
(assert
 (<= (- 1202) y_months))
(assert
 (>= 1209 y_months))
(assert
 (>= y_beta 0))
(assert
 (let ((?x2616 (+ y_months 24003)))
 (let ((?x5116 (- ?x2616 (* (div (- ?x2616 1) 12) 12))))
 (let ((?x1113 (ite (or (= ?x5116 4) (= ?x5116 6) (= ?x5116 9) (= ?x5116 11)) 30 31)))
 (let (($x2725 (and (= (mod (div (- ?x2616 1) 12) 4) 0) (and (distinct (mod (div (- ?x2616 1) 12) 100) 0) true))))
 (let ((?x3226 (ite (or $x2725 (= (mod (div (- ?x2616 1) 12) 400) 0)) 29 28)))
 (< y_beta (ite (= ?x5116 2) ?x3226 ?x1113))))))))
(assert
 (let (($x4797 (and (= x_months (- (+ (* 2019 12) 12) 24003)) (<= 30 x_beta))))
 (or (> x_months (- (+ (* 2019 12) 12) 24003)) $x4797)))
(assert
 (let (($x1419 (and (= x_months (- (+ (* 2020 12) 2) 24003)) (>= 0 x_beta))))
 (or (< x_months (- (+ (* 2020 12) 2) 24003)) $x1419)))
(assert
 (let ((?x4434 (+ x_beta 1)))
 (let ((?x1277 (+ (+ x_months 12) 24003)))
 (let ((?x1609 (- ?x1277 (* (div (- ?x1277 1) 12) 12))))
 (let ((?x4577 (ite (or (= ?x1609 4) (= ?x1609 6) (= ?x1609 9) (= ?x1609 11)) 30 31)))
 (let (($x5522 (and (= (mod (div (- ?x1277 1) 12) 4) 0) (and (distinct (mod (div (- ?x1277 1) 12) 100) 0) true))))
 (let (($x4336 (or $x5522 (= (mod (div (- ?x1277 1) 12) 400) 0))))
 (let ((?x4338 (ite (= ?x1609 2) (ite $x4336 29 28) ?x4577)))
 (let (($x4267 (> 1 ?x4434)))
 (let ((?x499 (ite $x4267 1 (ite (> ?x4434 ?x4338) ?x4338 ?x4434))))
 (let ((?x3417 (ite (> 1 ?x499) 1 (ite (> ?x499 ?x4338) ?x4338 ?x499))))
 (let ((?x1705 (ite (= 2 ?x1609) (ite $x4336 31 31) (ite (= 1 ?x1609) (ite $x4336 0 0) 0))))
 (let ((?x2290 (ite (= 4 ?x1609) (ite $x4336 91 90) (ite (= 3 ?x1609) (ite $x4336 60 59) ?x1705))))
 (let ((?x3851 (ite (= 6 ?x1609) (ite $x4336 152 151) (ite (= 5 ?x1609) (ite $x4336 121 120) ?x2290))))
 (let ((?x2029 (ite (= 8 ?x1609) (ite $x4336 213 212) (ite (= 7 ?x1609) (ite $x4336 182 181) ?x3851))))
 (let ((?x4115 (ite (= 10 ?x1609) (ite $x4336 274 273) (ite (= 9 ?x1609) (ite $x4336 244 243) ?x2029))))
 (let ((?x5463 (ite (= 12 ?x1609) (ite $x4336 335 334) (ite (= 11 ?x1609) (ite $x4336 305 304) ?x4115))))
 (let ((?x3244 (+ (* 365 (- (div (- ?x1277 1) 12) 1)) (div (- (div (- ?x1277 1) 12) 1) 4))))
 (let ((?x4847 (+ (- ?x3244 (div (- (div (- ?x1277 1) 12) 1) 100)) (div (- (div (- ?x1277 1) 12) 1) 400))))
 (let ((?x5430 (+ (+ (- (+ (+ ?x4847 ?x5463) (- ?x3417 1)) 730179) 0) 730179)))
 (let ((?x5485 (mod ?x5430 146097)))
 (let ((?x5541 (div ?x5485 36524)))
 (let ((?x5492 (ite (<= 4 ?x5541) 3 ?x5541)))
 (let ((?x5436 (- ?x5485 (* ?x5492 36524))))
 (let ((?x4041 (mod ?x5436 1461)))
 (let ((?x5494 (div ?x4041 365)))
 (let ((?x1455 (ite (<= 4 ?x5494) 3 ?x5494)))
 (let ((?x2378 (+ (+ (* (div ?x5430 146097) 400) (* ?x5492 100)) (* (div ?x5436 1461) 4))))
 (let ((?x3679 (+ (+ ?x2378 ?x1455) 1)))
 (let (($x1608 (or (and (= (mod ?x3679 4) 0) (and (distinct (mod ?x3679 100) 0) true)) (= (mod ?x3679 400) 0))))
 (let ((?x3381 (- ?x4041 (* ?x1455 365))))
 (let ((?x3367 (ite $x1608 31 31)))
 (let (($x3356 (>= ?x3381 ?x3367)))
 (let ((?x4726 (ite $x3356 (+ (- ?x3381 ?x3367) 1) (+ (- ?x3381 (ite $x1608 0 0)) 1))))
 (let ((?x2010 (ite $x1608 60 59)))
 (let (($x4407 (>= ?x3381 ?x2010)))
 (let ((?x2827 (ite $x1608 91 90)))
 (let (($x2728 (>= ?x3381 ?x2827)))
 (let ((?x2218 (ite $x2728 (+ (- ?x3381 ?x2827) 1) (ite $x4407 (+ (- ?x3381 ?x2010) 1) ?x4726))))
 (let ((?x2014 (ite $x1608 121 120)))
 (let (($x3613 (>= ?x3381 ?x2014)))
 (let ((?x5393 (ite $x1608 152 151)))
 (let (($x2129 (>= ?x3381 ?x5393)))
 (let ((?x4783 (ite $x2129 (+ (- ?x3381 ?x5393) 1) (ite $x3613 (+ (- ?x3381 ?x2014) 1) ?x2218))))
 (let ((?x3021 (ite $x1608 182 181)))
 (let (($x4107 (>= ?x3381 ?x3021)))
 (let ((?x383 (ite $x1608 213 212)))
 (let (($x5386 (>= ?x3381 ?x383)))
 (let ((?x3002 (ite $x5386 (+ (- ?x3381 ?x383) 1) (ite $x4107 (+ (- ?x3381 ?x3021) 1) ?x4783))))
 (let ((?x3620 (ite $x1608 244 243)))
 (let (($x1383 (>= ?x3381 ?x3620)))
 (let ((?x2566 (ite $x1608 274 273)))
 (let (($x2283 (>= ?x3381 ?x2566)))
 (let ((?x4346 (ite $x2283 (+ (- ?x3381 ?x2566) 1) (ite $x1383 (+ (- ?x3381 ?x3620) 1) ?x3002))))
 (let ((?x3573 (ite $x1608 305 304)))
 (let (($x1240 (>= ?x3381 ?x3573)))
 (let ((?x2574 (ite $x1608 335 334)))
 (let (($x1184 (>= ?x3381 ?x2574)))
 (let ((?x2172 (ite $x1184 (+ (- ?x3381 ?x2574) 1) (ite $x1240 (+ (- ?x3381 ?x3573) 1) ?x4346))))
 (let (($x1067 (= 0 0)))
 (let ((?x5259 (ite $x3613 5 (ite $x2728 4 (ite $x4407 3 (ite $x3356 2 1))))))
 (let ((?x5385 (ite $x1383 9 (ite $x5386 8 (ite $x4107 7 (ite $x2129 6 ?x5259))))))
 (let ((?x5544 (+ (* (ite $x1067 (div (- ?x1277 1) 12) ?x3679) 12) (ite $x1067 ?x1609 (ite $x1184 12 (ite $x1240 11 (ite $x2283 10 ?x5385)))))))
 (and (= y_months (- ?x5544 24003)) (= y_beta (- (ite $x1067 ?x3417 ?x2172) 1))))))))))))))))))))))))))))))))))))))))))))))))))))))))))))))))))
(assert
 (let ((?x4434 (+ x_beta 1)))
 (let ((?x409 (+ (+ x_months 0) 24003)))
 (let ((?x5445 (- ?x409 (* (div (- ?x409 1) 12) 12))))
 (let ((?x4542 (ite (or (= ?x5445 4) (= ?x5445 6) (= ?x5445 9) (= ?x5445 11)) 30 31)))
 (let (($x628 (and (= (mod (div (- ?x409 1) 12) 4) 0) (and (distinct (mod (div (- ?x409 1) 12) 100) 0) true))))
 (let (($x5042 (or $x628 (= (mod (div (- ?x409 1) 12) 400) 0))))
 (let ((?x2776 (ite (= ?x5445 2) (ite $x5042 29 28) ?x4542)))
 (let (($x4267 (> 1 ?x4434)))
 (let ((?x2628 (ite $x4267 1 (ite (> ?x4434 ?x2776) ?x2776 ?x4434))))
 (let ((?x637 (ite (> 1 ?x2628) 1 (ite (> ?x2628 ?x2776) ?x2776 ?x2628))))
 (let ((?x3342 (ite (= 2 ?x5445) (ite $x5042 31 31) (ite (= 1 ?x5445) (ite $x5042 0 0) 0))))
 (let ((?x4790 (ite (= 4 ?x5445) (ite $x5042 91 90) (ite (= 3 ?x5445) (ite $x5042 60 59) ?x3342))))
 (let ((?x4753 (ite (= 6 ?x5445) (ite $x5042 152 151) (ite (= 5 ?x5445) (ite $x5042 121 120) ?x4790))))
 (let ((?x526 (ite (= 8 ?x5445) (ite $x5042 213 212) (ite (= 7 ?x5445) (ite $x5042 182 181) ?x4753))))
 (let ((?x5502 (ite (= 10 ?x5445) (ite $x5042 274 273) (ite (= 9 ?x5445) (ite $x5042 244 243) ?x526))))
 (let ((?x2403 (ite (= 12 ?x5445) (ite $x5042 335 334) (ite (= 11 ?x5445) (ite $x5042 305 304) ?x5502))))
 (let ((?x2982 (+ (* 365 (- (div (- ?x409 1) 12) 1)) (div (- (div (- ?x409 1) 12) 1) 4))))
 (let ((?x2161 (+ (- ?x2982 (div (- (div (- ?x409 1) 12) 1) 100)) (div (- (div (- ?x409 1) 12) 1) 400))))
 (let ((?x4060 (+ (+ (- (+ (+ ?x2161 ?x2403) (- ?x637 1)) 730179) 365) 730179)))
 (let ((?x1152 (mod ?x4060 146097)))
 (let ((?x3081 (div ?x1152 36524)))
 (let ((?x1256 (ite (<= 4 ?x3081) 3 ?x3081)))
 (let ((?x2148 (- ?x1152 (* ?x1256 36524))))
 (let ((?x313 (mod ?x2148 1461)))
 (let ((?x1599 (div ?x313 365)))
 (let ((?x3362 (ite (<= 4 ?x1599) 3 ?x1599)))
 (let ((?x3771 (+ (+ (* (div ?x4060 146097) 400) (* ?x1256 100)) (* (div ?x2148 1461) 4))))
 (let ((?x2584 (+ (+ ?x3771 ?x3362) 1)))
 (let (($x3637 (or (and (= (mod ?x2584 4) 0) (and (distinct (mod ?x2584 100) 0) true)) (= (mod ?x2584 400) 0))))
 (let ((?x4021 (- ?x313 (* ?x3362 365))))
 (let ((?x4540 (ite $x3637 31 31)))
 (let (($x4589 (>= ?x4021 ?x4540)))
 (let ((?x2367 (ite $x4589 (+ (- ?x4021 ?x4540) 1) (+ (- ?x4021 (ite $x3637 0 0)) 1))))
 (let ((?x2482 (ite $x3637 60 59)))
 (let (($x4480 (>= ?x4021 ?x2482)))
 (let ((?x3842 (ite $x3637 91 90)))
 (let (($x3196 (>= ?x4021 ?x3842)))
 (let ((?x6264 (ite $x3196 (+ (- ?x4021 ?x3842) 1) (ite $x4480 (+ (- ?x4021 ?x2482) 1) ?x2367))))
 (let ((?x4558 (ite $x3637 121 120)))
 (let (($x4549 (>= ?x4021 ?x4558)))
 (let ((?x346 (ite $x3637 152 151)))
 (let (($x1462 (>= ?x4021 ?x346)))
 (let ((?x4191 (ite $x1462 (+ (- ?x4021 ?x346) 1) (ite $x4549 (+ (- ?x4021 ?x4558) 1) ?x6264))))
 (let ((?x3436 (ite $x3637 182 181)))
 (let (($x3044 (>= ?x4021 ?x3436)))
 (let ((?x1973 (ite $x3637 213 212)))
 (let (($x4794 (>= ?x4021 ?x1973)))
 (let ((?x4108 (ite $x4794 (+ (- ?x4021 ?x1973) 1) (ite $x3044 (+ (- ?x4021 ?x3436) 1) ?x4191))))
 (let ((?x2176 (ite $x3637 244 243)))
 (let (($x3215 (>= ?x4021 ?x2176)))
 (let ((?x2522 (ite $x3637 274 273)))
 (let (($x4801 (>= ?x4021 ?x2522)))
 (let ((?x3936 (ite $x4801 (+ (- ?x4021 ?x2522) 1) (ite $x3215 (+ (- ?x4021 ?x2176) 1) ?x4108))))
 (let ((?x5395 (ite $x3637 305 304)))
 (let (($x4129 (>= ?x4021 ?x5395)))
 (let ((?x3569 (ite $x3637 335 334)))
 (let (($x569 (>= ?x4021 ?x3569)))
 (let ((?x3928 (ite $x569 (+ (- ?x4021 ?x3569) 1) (ite $x4129 (+ (- ?x4021 ?x5395) 1) ?x3936))))
 (let (($x4746 (= 365 0)))
 (let ((?x3608 (ite $x4549 5 (ite $x3196 4 (ite $x4480 3 (ite $x4589 2 1))))))
 (let ((?x885 (ite $x3215 9 (ite $x4794 8 (ite $x3044 7 (ite $x1462 6 ?x3608))))))
 (let ((?x1195 (ite $x569 12 (ite $x4129 11 (ite $x4801 10 ?x885)))))
 (let ((?x3559 (+ (* (ite $x4746 (div (- ?x409 1) 12) ?x2584) 12) (ite $x4746 ?x5445 ?x1195))))
 (let (($x2887 (and (= y_months (- ?x3559 24003)) (= y_beta (- (ite $x4746 ?x637 ?x3928) 1)))))
 (not $x2887))))))))))))))))))))))))))))))))))))))))))))))))))))))))))))))))))
(assert
 (and (= x_months (- (+ (* 2020 12) 1) 24003)) (= 2 x_beta)))
(assert
 (and (= y_months (- (+ (* 2021 12) 1) 24003)) (= 2 y_beta)))
(check-sat)
